\ This file has been generated by DOcplex
\ ENCODING=ISO-8859-1
\Problem name: opt_problem

Minimize
 obj: - 0.048387096774 x0 - 0.145161290323 x1 - 0.096774193548 x2
      + 0.129032258065 x3 + 0.032258064516 x4 - 0.129032258065 x5 + [
      0.129032258065 x0^2 - 0.516129032258 x0*x1 + 0.451612903226 x0*x2
      + 0.064516129032 x0*x3 + 0.193548387097 x0*x4 + 0.129032258065 x0*x5
      - 0.451612903226 x1^2 + 0.064516129032 x1*x2 + 0.451612903226 x1*x3
      - 0.193548387097 x1*x4 + 0.258064516129 x2*x3 + 0.451612903226 x2*x4
      - 0.193548387097 x2*x5 - 0.387096774194 x3*x4 - 0.322580645161 x3*x5
      + 0.322580645161 x4^2 + 0.322580645161 x4*x5 - 0.645161290323 x5^2 ]/2
Subject To
 c0: 2 x2 - x4 + 2 x5 = 0
 c1: 2 x1 + 2 x2 - x4 = 0

Bounds
 0 <= x0 <= 1
 0 <= x1 <= 1
 0 <= x2 <= 1
 0 <= x3 <= 1
 0 <= x4 <= 1
 0 <= x5 <= 1

Binaries
 x0 x1 x2 x3 x4 x5
End
